\* Transportation_problem_dual *\
Maximize
OBJ: 38 dual_0 + 129 dual_1 + 80 dual_10 + 9 dual_11 + 22 dual_12 + 69 dual_13
 + 5 dual_14 + 81 dual_15 + 37 dual_16 + 18 dual_17 + 53 dual_18 + 2 dual_19
 + 104 dual_2 + 56 dual_20 + 90 dual_21 + 67 dual_22 + 45 dual_23 + 56 dual_24
 + 49 dual_25 + dual_26 + 96 dual_27 + 83 dual_28 + 26 dual_29 + 75 dual_3
 + 126 dual_4 + 90 dual_5 + 105 dual_6 + 91 dual_7 + 47 dual_8 + 61 dual_9
Subject To
constraint__0__: dual_0 + dual_10 <= 19
constraint__100__: dual_0 + dual_20 <= 14
constraint__101__: dual_1 + dual_20 <= 9
constraint__102__: dual_2 + dual_20 <= 13
constraint__103__: dual_20 + dual_3 <= 13
constraint__104__: dual_20 + dual_4 <= 10
constraint__105__: dual_20 + dual_5 <= 12
constraint__106__: dual_20 + dual_6 <= 14
constraint__107__: dual_20 + dual_7 <= 12
constraint__108__: dual_20 + dual_8 <= 7
constraint__109__: dual_20 + dual_9 <= 10
constraint__10__: dual_0 + dual_11 <= 17
constraint__110__: dual_0 + dual_21 <= 29
constraint__111__: dual_1 + dual_21 <= 30
constraint__112__: dual_2 + dual_21 <= 32
constraint__113__: dual_21 + dual_3 <= 23
constraint__114__: dual_21 + dual_4 <= 28
constraint__115__: dual_21 + dual_5 <= 28
constraint__116__: dual_21 + dual_6 <= 27
constraint__117__: dual_21 + dual_7 <= 26
constraint__118__: dual_21 + dual_8 <= 26
constraint__119__: dual_21 + dual_9 <= 26
constraint__11__: dual_1 + dual_11 <= 17
constraint__120__: dual_0 + dual_22 <= 34
constraint__121__: dual_1 + dual_22 <= 32
constraint__122__: dual_2 + dual_22 <= 31
constraint__123__: dual_22 + dual_3 <= 35
constraint__124__: dual_22 + dual_4 <= 33
constraint__125__: dual_22 + dual_5 <= 27
constraint__126__: dual_22 + dual_6 <= 27
constraint__127__: dual_22 + dual_7 <= 30
constraint__128__: dual_22 + dual_8 <= 28
constraint__129__: dual_22 + dual_9 <= 32
constraint__12__: dual_11 + dual_2 <= 9
constraint__130__: dual_0 + dual_23 <= 27
constraint__131__: dual_1 + dual_23 <= 27
constraint__132__: dual_2 + dual_23 <= 23
constraint__133__: dual_23 + dual_3 <= 20
constraint__134__: dual_23 + dual_4 <= 28
constraint__135__: dual_23 + dual_5 <= 22
constraint__136__: dual_23 + dual_6 <= 22
constraint__137__: dual_23 + dual_7 <= 25
constraint__138__: dual_23 + dual_8 <= 23
constraint__139__: dual_23 + dual_9 <= 24
constraint__13__: dual_11 + dual_3 <= 18
constraint__140__: dual_0 + dual_24 <= 29
constraint__141__: dual_1 + dual_24 <= 35
constraint__142__: dual_2 + dual_24 <= 33
constraint__143__: dual_24 + dual_3 <= 32
constraint__144__: dual_24 + dual_4 <= 29
constraint__145__: dual_24 + dual_5 <= 32
constraint__146__: dual_24 + dual_6 <= 33
constraint__147__: dual_24 + dual_7 <= 32
constraint__148__: dual_24 + dual_8 <= 29
constraint__149__: dual_24 + dual_9 <= 33
constraint__14__: dual_11 + dual_4 <= 10
constraint__150__: dual_0 + dual_25 <= 19
constraint__151__: dual_1 + dual_25 <= 17
constraint__152__: dual_2 + dual_25 <= 21
constraint__153__: dual_25 + dual_3 <= 17
constraint__154__: dual_25 + dual_4 <= 17
constraint__155__: dual_25 + dual_5 <= 13
constraint__156__: dual_25 + dual_6 <= 21
constraint__157__: dual_25 + dual_7 <= 17
constraint__158__: dual_25 + dual_8 <= 19
constraint__159__: dual_25 + dual_9 <= 13
constraint__15__: dual_11 + dual_5 <= 12
constraint__160__: dual_0 + dual_26 <= 28
constraint__161__: dual_1 + dual_26 <= 25
constraint__162__: dual_2 + dual_26 <= 26
constraint__163__: dual_26 + dual_3 <= 24
constraint__164__: dual_26 + dual_4 <= 28
constraint__165__: dual_26 + dual_5 <= 29
constraint__166__: dual_26 + dual_6 <= 31
constraint__167__: dual_26 + dual_7 <= 23
constraint__168__: dual_26 + dual_8 <= 24
constraint__169__: dual_26 + dual_9 <= 26
constraint__16__: dual_11 + dual_6 <= 13
constraint__170__: dual_0 + dual_27 <= 23
constraint__171__: dual_1 + dual_27 <= 27
constraint__172__: dual_2 + dual_27 <= 22
constraint__173__: dual_27 + dual_3 <= 23
constraint__174__: dual_27 + dual_4 <= 24
constraint__175__: dual_27 + dual_5 <= 21
constraint__176__: dual_27 + dual_6 <= 24
constraint__177__: dual_27 + dual_7 <= 23
constraint__178__: dual_27 + dual_8 <= 24
constraint__179__: dual_27 + dual_9 <= 26
constraint__17__: dual_11 + dual_7 <= 15
constraint__180__: dual_0 + dual_28 <= 24
constraint__181__: dual_1 + dual_28 <= 24
constraint__182__: dual_2 + dual_28 <= 23
constraint__183__: dual_28 + dual_3 <= 22
constraint__184__: dual_28 + dual_4 <= 23
constraint__185__: dual_28 + dual_5 <= 28
constraint__186__: dual_28 + dual_6 <= 28
constraint__187__: dual_28 + dual_7 <= 22
constraint__188__: dual_28 + dual_8 <= 29
constraint__189__: dual_28 + dual_9 <= 29
constraint__18__: dual_11 + dual_8 <= 10
constraint__190__: dual_0 + dual_29 <= 21
constraint__191__: dual_1 + dual_29 <= 25
constraint__192__: dual_2 + dual_29 <= 24
constraint__193__: dual_29 + dual_3 <= 18
constraint__194__: dual_29 + dual_4 <= 19
constraint__195__: dual_29 + dual_5 <= 22
constraint__196__: dual_29 + dual_6 <= 19
constraint__197__: dual_29 + dual_7 <= 25
constraint__198__: dual_29 + dual_8 <= 18
constraint__199__: dual_29 + dual_9 <= 21
constraint__19__: dual_11 + dual_9 <= 11
constraint__1__: dual_1 + dual_10 <= 17
constraint__200__: - dual_0 <= 0
constraint__201__: - dual_1 <= 0
constraint__202__: - dual_2 <= 0
constraint__203__: - dual_3 <= 0
constraint__204__: - dual_4 <= 0
constraint__205__: - dual_5 <= 0
constraint__206__: - dual_6 <= 0
constraint__207__: - dual_7 <= 0
constraint__208__: - dual_8 <= 0
constraint__209__: - dual_9 <= 0
constraint__20__: dual_0 + dual_12 <= 30
constraint__210__: dual_10 <= 0
constraint__211__: dual_11 <= 0
constraint__212__: dual_12 <= 0
constraint__213__: dual_13 <= 0
constraint__214__: dual_14 <= 0
constraint__215__: dual_15 <= 0
constraint__216__: dual_16 <= 0
constraint__217__: dual_17 <= 0
constraint__218__: dual_18 <= 0
constraint__219__: dual_19 <= 0
constraint__21__: dual_1 + dual_12 <= 34
constraint__220__: dual_20 <= 0
constraint__221__: dual_21 <= 0
constraint__222__: dual_22 <= 0
constraint__223__: dual_23 <= 0
constraint__224__: dual_24 <= 0
constraint__225__: dual_25 <= 0
constraint__226__: dual_26 <= 0
constraint__227__: dual_27 <= 0
constraint__228__: dual_28 <= 0
constraint__229__: dual_29 <= 0
constraint__22__: dual_12 + dual_2 <= 36
constraint__23__: dual_12 + dual_3 <= 30
constraint__24__: dual_12 + dual_4 <= 29
constraint__25__: dual_12 + dual_5 <= 37
constraint__26__: dual_12 + dual_6 <= 33
constraint__27__: dual_12 + dual_7 <= 34
constraint__28__: dual_12 + dual_8 <= 31
constraint__29__: dual_12 + dual_9 <= 29
constraint__2__: dual_10 + dual_2 <= 18
constraint__30__: dual_0 + dual_13 <= 31
constraint__31__: dual_1 + dual_13 <= 34
constraint__32__: dual_13 + dual_2 <= 36
constraint__33__: dual_13 + dual_3 <= 36
constraint__34__: dual_13 + dual_4 <= 29
constraint__35__: dual_13 + dual_5 <= 31
constraint__36__: dual_13 + dual_6 <= 32
constraint__37__: dual_13 + dual_7 <= 36
constraint__38__: dual_13 + dual_8 <= 33
constraint__39__: dual_13 + dual_9 <= 34
constraint__3__: dual_10 + dual_3 <= 19
constraint__40__: dual_0 + dual_14 <= 27
constraint__41__: dual_1 + dual_14 <= 21
constraint__42__: dual_14 + dual_2 <= 25
constraint__43__: dual_14 + dual_3 <= 22
constraint__44__: dual_14 + dual_4 <= 21
constraint__45__: dual_14 + dual_5 <= 22
constraint__46__: dual_14 + dual_6 <= 22
constraint__47__: dual_14 + dual_7 <= 29
constraint__48__: dual_14 + dual_8 <= 26
constraint__49__: dual_14 + dual_9 <= 21
constraint__4__: dual_10 + dual_4 <= 22
constraint__50__: dual_0 + dual_15 <= 15
constraint__51__: dual_1 + dual_15 <= 17
constraint__52__: dual_15 + dual_2 <= 17
constraint__53__: dual_15 + dual_3 <= 17
constraint__54__: dual_15 + dual_4 <= 12
constraint__55__: dual_15 + dual_5 <= 9
constraint__56__: dual_15 + dual_6 <= 13
constraint__57__: dual_15 + dual_7 <= 12
constraint__58__: dual_15 + dual_8 <= 11
constraint__59__: dual_15 + dual_9 <= 9
constraint__5__: dual_10 + dual_5 <= 16
constraint__60__: dual_0 + dual_16 <= 6
constraint__61__: dual_1 + dual_16 <= 12
constraint__62__: dual_16 + dual_2 <= 14
constraint__63__: dual_16 + dual_3 <= 15
constraint__64__: dual_16 + dual_4 <= 11
constraint__65__: dual_16 + dual_5 <= 14
constraint__66__: dual_16 + dual_6 <= 12
constraint__67__: dual_16 + dual_7 <= 6
constraint__68__: dual_16 + dual_8 <= 14
constraint__69__: dual_16 + dual_9 <= 10
constraint__6__: dual_10 + dual_6 <= 17
constraint__70__: dual_0 + dual_17 <= 26
constraint__71__: dual_1 + dual_17 <= 23
constraint__72__: dual_17 + dual_2 <= 24
constraint__73__: dual_17 + dual_3 <= 26
constraint__74__: dual_17 + dual_4 <= 20
constraint__75__: dual_17 + dual_5 <= 21
constraint__76__: dual_17 + dual_6 <= 27
constraint__77__: dual_17 + dual_7 <= 26
constraint__78__: dual_17 + dual_8 <= 28
constraint__79__: dual_17 + dual_9 <= 24
constraint__7__: dual_10 + dual_7 <= 15
constraint__80__: dual_0 + dual_18 <= 35
constraint__81__: dual_1 + dual_18 <= 33
constraint__82__: dual_18 + dual_2 <= 31
constraint__83__: dual_18 + dual_3 <= 30
constraint__84__: dual_18 + dual_4 <= 35
constraint__85__: dual_18 + dual_5 <= 33
constraint__86__: dual_18 + dual_6 <= 35
constraint__87__: dual_18 + dual_7 <= 30
constraint__88__: dual_18 + dual_8 <= 36
constraint__89__: dual_18 + dual_9 <= 33
constraint__8__: dual_10 + dual_8 <= 16
constraint__90__: dual_0 + dual_19 <= 13
constraint__91__: dual_1 + dual_19 <= 14
constraint__92__: dual_19 + dual_2 <= 12
constraint__93__: dual_19 + dual_3 <= 16
constraint__94__: dual_19 + dual_4 <= 18
constraint__95__: dual_19 + dual_5 <= 17
constraint__96__: dual_19 + dual_6 <= 14
constraint__97__: dual_19 + dual_7 <= 14
constraint__98__: dual_19 + dual_8 <= 18
constraint__99__: dual_19 + dual_9 <= 16
constraint__9__: dual_10 + dual_9 <= 22
Bounds
 dual_0 free
 dual_1 free
 dual_10 free
 dual_11 free
 dual_12 free
 dual_13 free
 dual_14 free
 dual_15 free
 dual_16 free
 dual_17 free
 dual_18 free
 dual_19 free
 dual_2 free
 dual_20 free
 dual_21 free
 dual_22 free
 dual_23 free
 dual_24 free
 dual_25 free
 dual_26 free
 dual_27 free
 dual_28 free
 dual_29 free
 dual_3 free
 dual_4 free
 dual_5 free
 dual_6 free
 dual_7 free
 dual_8 free
 dual_9 free
End
